NAME : census.pruned_local_8.tour
TYPE : TOUR
DIMENSION : 68
TOUR_SECTION
1
2
3
29
39
43
45
48
51
53
55
4
22
23
28
30
36
5
16
38
6
8
25
27
32
33
40
50
64
66
7
9
14
62
63
67
68
10
20
49
52
54
59
11
18
19
21
24
26
31
46
12
41
56
57
58
13
17
34
35
37
42
44
15
47
60
61
65
-1
EOF
